Route #1: 50 76 77 3 79 29 24 68 80 12 28
Route #2: 97 92 37 100 91 61 16 86 44 38 14 43 42 87
Route #3: 58 2 57 15 41 22 74 73 21 40 53
Route #4: 89 18 83 60 5 84 17 45 8 46 47 48 82 7 52
Route #5: 27 88 62 11 19 36 49 64 63 90 32 10 31
Route #6: 1 51 9 81 33 78 34 35 65 71 66 20 30 70 69
Route #7: 26 54 55 25 4 39 67 23 56 75 72
Route #8: 13 94 95 59 98 85 93 99 96 6
cost 827
